RT is False
Default write of storage_offers_DA.csv just to have a file (but constraint should be inactive)
Reading model...
...model read.
creating competitive generators file...
...competitive generators recorded.
Loading data...
.. day-ahead data read.
Compiling instance...
...instance created.
Creating Offer Mitigation (model will solve as dispatch if TRUE)...
...storage offer mitigation file created
Converting model to MPEC...
...converted
NOTE: initial MIP solve with only storage competitive to get feasible solution
Solving...

Welcome to IBM(R) ILOG(R) CPLEX(R) Interactive Optimizer 12.9.0.0
  with Simplex, Mixed Integer & Barrier Optimizers
5725-A06 5725-A29 5724-Y48 5724-Y49 5724-Y54 5724-Y55 5655-Y21
Copyright IBM Corp. 1988, 2019.  All Rights Reserved.

Type 'help' for a list of available commands.
Type 'help' followed by a command name for more
information on commands.

CPLEX> Logfile 'cplex.log' closed.
Logfile 'C:\Users\Luke\Desktop\competitiveMPEC_1.16\logs\tmptf3b9g15.cplex.log' open.
CPLEX> New value for parallel optimization mode: -1
CPLEX> New value for mixed integer optimality gap tolerance: 0.01
CPLEX> New value for deterministic time limit in ticks: 200000
CPLEX> Problem 'C:\Users\Luke\Desktop\competitiveMPEC_1.16\logs\tmpr21efao1.pyomo.lp' read.
Read time = 0.19 sec. (13.86 ticks)
CPLEX> Problem name         : C:\Users\Luke\Desktop\competitiveMPEC_1.16\logs\tmpr21efao1.pyomo.lp
Objective sense      : Maximize
Variables            :   53321  [Nneg: 49,  Box: 21806,  Free: 4368,
                                 Binary: 27098]
Objective nonzeros   :    8946
Linear constraints   :  122164  [Less: 40983,  Greater: 58612,  Equal: 22569]
  Nonzeros           :  288471
  RHS nonzeros       :   66948

Variables            : Min LB: -5000.000        Max UB: 5000.000       
Objective nonzeros   : Min   : 1.600000         Max   : 840.7000       
Linear constraints   :
  Nonzeros           : Min   : 0.8500000        Max   : 2910000.       
  RHS nonzeros       : Min   : 1.000000         Max   : 3000000.       
CPLEX> CPXPARAM_Parallel                                -1
CPXPARAM_DetTimeLimit                            200000
CPXPARAM_MIP_Tolerances_MIPGap                   0.01
Tried aggregator 3 times.
MIP Presolve eliminated 88209 rows and 19039 columns.
MIP Presolve added 3348 rows and 0 columns.
MIP Presolve modified 24428 coefficients.
Aggregator did 12869 substitutions.
Reduced MIP has 24434 rows, 20831 columns, and 68487 nonzeros.
Reduced MIP has 8235 binaries, 0 generals, 0 SOSs, and 0 indicators.
Presolve time = 0.22 sec. (166.34 ticks)
Probing fixed 432 vars, tightened 4382 bounds.
Probing time = 0.05 sec. (20.17 ticks)
Tried aggregator 2 times.
MIP Presolve eliminated 972 rows and 870 columns.
MIP Presolve modified 2971 coefficients.
Aggregator did 29 substitutions.
Reduced MIP has 23433 rows, 19932 columns, and 65586 nonzeros.
Reduced MIP has 7800 binaries, 0 generals, 0 SOSs, and 0 indicators.
Presolve time = 0.09 sec. (89.27 ticks)
Probing fixed 0 vars, tightened 177 bounds.
Probing time = 0.11 sec. (22.77 ticks)
Clique table members: 41549.
MIP emphasis: balance optimality and feasibility.
MIP search method: dynamic search.
Parallel mode: opportunistic, using up to 24 threads.
Root relaxation solution time = 0.31 sec. (535.15 ticks)

        Nodes                                         Cuts/
   Node  Left     Objective  IInf  Best Integer    Best Bound    ItCnt     Gap

      0     0    23786.2879    34                  23786.2879     5050         
*     0+    0                        23786.2879    23786.2879             0.00%
      0     0        cutoff          23786.2879    23786.2879     5050    0.00%
Elapsed time = 1.38 sec. (1107.48 ticks, tree = 0.01 MB, solutions = 1)

Root node processing (before b&c):
  Real time             =    1.39 sec. (1109.40 ticks)
Parallel b&c, 24 threads:
  Real time             =    0.00 sec. (0.00 ticks)
  Sync time (average)   =    0.00 sec.
  Wait time (average)   =    0.00 sec.
                          ------------
Total (root+branch&cut) =    1.39 sec. (1109.40 ticks)

Solution pool: 1 solution saved.

MIP - Integer optimal solution:  Objective =  2.3786287902e+04
Solution time =    1.41 sec.  Iterations = 5050  Nodes = 0
Deterministic time = 1109.55 ticks  (789.15 ticks/sec)

CPLEX> Incumbent solution written to file 'C:\Users\Luke\Desktop\competitiveMPEC_1.16\logs\tmppuxulttm.cplex.sol'.
CPLEX> NOTE: no warmstart specified for MIP iteration, default behavior is true
NOTE: resolving with all competitive generators using storage-only solution to warmstart
Solving...

Welcome to IBM(R) ILOG(R) CPLEX(R) Interactive Optimizer 12.9.0.0
  with Simplex, Mixed Integer & Barrier Optimizers
5725-A06 5725-A29 5724-Y48 5724-Y49 5724-Y54 5724-Y55 5655-Y21
Copyright IBM Corp. 1988, 2019.  All Rights Reserved.

Type 'help' for a list of available commands.
Type 'help' followed by a command name for more
information on commands.

CPLEX> Logfile 'cplex.log' closed.
Logfile 'C:\Users\Luke\Desktop\competitiveMPEC_1.16\logs\tmpj03t9ue3.cplex.log' open.
CPLEX> New value for parallel optimization mode: -1
CPLEX> New value for mixed integer optimality gap tolerance: 0.01
CPLEX> New value for deterministic time limit in ticks: 200000
CPLEX> Problem 'C:\Users\Luke\Desktop\competitiveMPEC_1.16\logs\tmpp5svujoa.pyomo.lp' read.
Read time = 0.20 sec. (13.86 ticks)
CPLEX> MIP start file 'C:\Users\Luke\Desktop\competitiveMPEC_1.16\logs\tmph_5fowcu.cplex.mst' read.
CPLEX> Problem name         : C:\Users\Luke\Desktop\competitiveMPEC_1.16\logs\tmpp5svujoa.pyomo.lp
Objective sense      : Maximize
Variables            :   53321  [Nneg: 49,  Box: 21806,  Free: 4368,
                                 Binary: 27098]
Objective nonzeros   :    8922
Linear constraints   :  122164  [Less: 40983,  Greater: 58612,  Equal: 22569]
  Nonzeros           :  288471
  RHS nonzeros       :   66948

Variables            : Min LB: -5000.000        Max UB: 5000.000       
Objective nonzeros   : Min   : 1.600000         Max   : 799.1000       
Linear constraints   :
  Nonzeros           : Min   : 0.8500000        Max   : 2910000.       
  RHS nonzeros       : Min   : 1.000000         Max   : 3000000.       
CPLEX> CPXPARAM_Parallel                                -1
CPXPARAM_DetTimeLimit                            200000
CPXPARAM_MIP_Tolerances_MIPGap                   0.01
Warning:  No solution found from 1 MIP starts.
Retaining values of one MIP start for possible repair.
Tried aggregator 3 times.
MIP Presolve eliminated 88209 rows and 19039 columns.
MIP Presolve added 3348 rows and 0 columns.
MIP Presolve modified 24428 coefficients.
Aggregator did 12869 substitutions.
Reduced MIP has 24434 rows, 20831 columns, and 68487 nonzeros.
Reduced MIP has 8235 binaries, 0 generals, 0 SOSs, and 0 indicators.
Presolve time = 0.23 sec. (166.34 ticks)
Probing fixed 432 vars, tightened 4382 bounds.
Probing time = 0.06 sec. (20.17 ticks)
Tried aggregator 2 times.
MIP Presolve eliminated 972 rows and 870 columns.
MIP Presolve modified 2971 coefficients.
Aggregator did 29 substitutions.
Reduced MIP has 23433 rows, 19932 columns, and 65586 nonzeros.
Reduced MIP has 7800 binaries, 0 generals, 0 SOSs, and 0 indicators.
Presolve time = 0.11 sec. (89.28 ticks)
Probing fixed 0 vars, tightened 177 bounds.
Probing time = 0.09 sec. (22.77 ticks)
Clique table members: 41549.
MIP emphasis: balance optimality and feasibility.
MIP search method: dynamic search.
Parallel mode: opportunistic, using up to 24 threads.
Root relaxation solution time = 0.38 sec. (571.18 ticks)

        Nodes                                         Cuts/
   Node  Left     Objective  IInf  Best Integer    Best Bound    ItCnt     Gap

      0     0    82560.3471   163                  82560.3471     5662         
      0     0    82488.3908   122                   Cuts: 140     5768         
      0     0    82394.9368   137                   Cuts: 184     5930         
      0     0    82378.0124    99                   Cuts: 146     6013         
      0     0    82373.6730    94                    Cuts: 59     6027         
      0     0    82349.8225    94                 Flowcuts: 2     6044         
      0     0    82339.6511    97                 Flowcuts: 9     6050         
Repair heuristic found nothing.
      0    17    infeasible                       Impl Bds: 6     6460         
Elapsed time = 4.97 sec. (3326.13 ticks, tree = 0.02 MB, solutions = 0)
    304    78    53982.6518    66                  80915.6674     7670         
    754   293    50709.8308    25                  80656.8359    11797         
   1124   627    62335.8062    21                  80656.8359    20386         
   1631   970    61719.4101    61                  78793.3277    34081         
   2148  1131    61777.0228    61                  78793.3277    38368         
   2623  1425    50703.3717    11                  78793.3277    49937         
   3073  1652    59687.7064    31                  77801.5133    57445         
   3503  1931    30470.6925    50                  75724.1460    70590         
   3883  2046    infeasible                        75071.6710    76831         
   5619  3149    infeasible                        74479.7646   147410         
Elapsed time = 13.20 sec. (6432.18 ticks, tree = 63.86 MB, solutions = 0)
   7466  4374    65188.3351    45                  73835.8531   198853         
   7660  4791    infeasible                        73835.8531   223101         
   8219   213    61828.7503    24                  71947.8739   226011         
   9177   479    62089.6029    55                  69334.9559   231673         
* 10410+  666                        64431.2834    67449.8572             4.68%
  12653   401    65589.2783     8    64431.2834    66984.9391   278043    3.96%
* 12919+  429                        65694.0460    66798.9293             1.68%
* 12992+  373                        65694.0460    66798.9293             1.68%

Clique cuts applied:  1
Cover cuts applied:  28
Flow cuts applied:  46
Mixed integer rounding cuts applied:  10
Gomory fractional cuts applied:  5

Root node processing (before b&c):
  Real time             =    4.44 sec. (3308.16 ticks)
Parallel b&c, 24 threads:
  Real time             =   28.09 sec. (12637.57 ticks)
  Sync time (average)   =    0.80 sec.
  Wait time (average)   =    0.06 sec.
                          ------------
Total (root+branch&cut) =   32.53 sec. (15945.73 ticks)

Solution pool: 3 solutions saved.

MIP - Integer optimal, tolerance (0.01/1e-06):  Objective =  6.5694045964e+04
Current MIP best bound =  6.6307777480e+04 (gap = 613.732, 0.93%)
Solution time =   32.55 sec.  Iterations = 286482  Nodes = 13362 (165)
Deterministic time = 15945.88 ticks  (489.93 ticks/sec)

CPLEX> Incumbent solution written to file 'C:\Users\Luke\Desktop\competitiveMPEC_1.16\logs\tmp6m74zoas.cplex.sol'.
CPLEX> Exporting results... 
